<?xml version = "1.0" standalone="yes"?>
<!-- This file has been generated by DOcplex version 2.23.222  -->
<CPLEXSolution version="1.0">
 <header
   problemName="CVRP"
   objectiveValue="13006.1"
  />
 <variables>
  <variable name="x_0_1" index="0" value="1.00000"/>
  <variable name="x_0_3" index="2" value="1.00000"/>
  <variable name="x_0_4" index="3" value="1.00000"/>
  <variable name="x_0_7" index="6" value="1.00000"/>
  <variable name="x_0_8" index="7" value="1.00000"/>
  <variable name="x_0_9" index="8" value="1.00000"/>
  <variable name="x_0_11" index="10" value="1.00000"/>
  <variable name="x_0_13" index="12" value="1.00000"/>
  <variable name="x_0_14" index="13" value="1.00000"/>
  <variable name="x_0_18" index="17" value="1.00000"/>
  <variable name="x_0_20" index="19" value="1.00000"/>
  <variable name="x_1_0" index="20" value="1.00000"/>
  <variable name="x_2_0" index="40" value="1.00000"/>
  <variable name="x_3_0" index="60" value="1.00000"/>
  <variable name="x_4_19" index="98" value="1.00000"/>
  <variable name="x_5_0" index="100" value="1.00000"/>
  <variable name="x_6_0" index="120" value="1.00000"/>
  <variable name="x_7_2" index="142" value="1.00000"/>
  <variable name="x_8_12" index="171" value="1.00000"/>
  <variable name="x_9_16" index="195" value="1.00000"/>
  <variable name="x_10_6" index="206" value="1.00000"/>
  <variable name="x_11_0" index="220" value="1.00000"/>
  <variable name="x_12_0" index="240" value="1.00000"/>
  <variable name="x_13_0" index="260" value="1.00000"/>
  <variable name="x_14_0" index="280" value="1.00000"/>
  <variable name="x_15_17" index="316" value="1.00000"/>
  <variable name="x_16_10" index="330" value="1.00000"/>
  <variable name="x_17_5" index="345" value="1.00000"/>
  <variable name="x_18_15" index="375" value="1.00000"/>
  <variable name="x_19_0" index="380" value="1.00000"/>
  <variable name="x_20_0" index="400" value="1.00000"/>
  <variable name="u_1" index="420" value="31.00000"/>
  <variable name="u_2" index="421" value="38.00000"/>
  <variable name="u_3" index="422" value="27.00000"/>
  <variable name="u_4" index="423" value="13.00000"/>
  <variable name="u_5" index="424" value="37.00000"/>
  <variable name="u_6" index="425" value="38.00000"/>
  <variable name="u_7" index="426" value="8.00000"/>
  <variable name="u_8" index="427" value="15.00000"/>
  <variable name="u_9" index="428" value="4.00000"/>
  <variable name="u_10" index="429" value="19.00000"/>
  <variable name="u_11" index="430" value="36.00000"/>
  <variable name="u_12" index="431" value="30.00000"/>
  <variable name="u_13" index="432" value="27.00000"/>
  <variable name="u_14" index="433" value="26.00000"/>
  <variable name="u_15" index="434" value="19.00000"/>
  <variable name="u_16" index="435" value="5.00000"/>
  <variable name="u_17" index="436" value="34.00000"/>
  <variable name="u_18" index="437" value="18.00000"/>
  <variable name="u_19" index="438" value="38.00000"/>
  <variable name="u_20" index="439" value="38.00000"/>
 </variables>
</CPLEXSolution>
